p tw 81 168
0 1
0 9
0 47
1 10
1 48
2 3
2 4
2 5
2 6
3 71
4 5
4 6
4 7
4 68
4 71
5 6
5 14
6 25
7 8
7 68
7 71
8 76
8 79
9 10
9 11
9 47
10 11
10 48
11 30
11 31
12 13
12 55
12 62
12 63
13 75
14 32
14 33
15 16
15 17
15 18
15 79
16 17
16 18
16 62
16 72
16 75
17 18
17 21
17 22
18 44
18 63
18 76
19 20
19 61
20 38
20 39
20 40
21 22
21 66
21 73
22 44
23 24
23 34
23 77
24 27
24 30
24 35
25 68
26 27
26 28
26 29
26 60
27 28
27 29
27 30
27 35
28 29
28 43
29 36
29 57
29 58
30 31
30 35
31 37
32 33
32 47
32 48
32 49
32 50
33 59
34 35
34 36
34 37
34 77
35 36
35 37
36 37
36 57
36 58
38 39
38 40
38 77
39 40
39 45
39 53
39 61
40 46
41 42
41 69
41 70
42 54
42 65
43 58
44 63
44 76
45 46
45 53
45 61
47 48
47 49
47 50
48 49
48 50
49 50
49 59
49 64
50 74
50 80
51 52
51 73
51 78
52 66
52 67
53 54
53 61
54 65
55 56
55 62
55 63
56 72
57 58
57 60
59 64
62 63
62 72
62 75
63 76
64 70
64 74
65 67
65 69
65 78
65 80
66 67
66 73
67 69
67 78
67 80
68 71
69 70
69 78
69 80
70 74
72 75
73 78
74 80
76 79
78 80
